1
120 150 48
34
23
55
51
48
37
33
89
31
95
74
24
23
31
47
49
84
97
23
91
45
89
73
48
77
95
55
20
40
74
63
55
39
47
63
33
31
68
32
65
64
97
53
25
78
88
35
68
30
90
57
100
99
66
93
44
28
25
49
57
30
49
32
68
55
78
66
40
67
65
46
54
29
97
41
88
51
40
79
68
54
91
48
61
27
49
24
60
71
54
28
47
92
60
47
83
70
78
38
53
37
51
91
88
53
94
74
94
71
66
48
37
85
83
31
26
34
39
100
40
